000 000 000 000 000 000 000 000 -99 -99 -99 -99 -99 000 000 -99 000 000 000 000 -99 000 000 -99 000 000 000 000 000 -99 000
000 000 000 000 000 000 000 000 -99 -99 -99 -99 -99 000 000 000 -99 000 -99 -99 -99 000 000 000 000 000 001 000 000 -99 -99
000 000 000 000 000 000 000 000 000 -99 -99 000 -99 -99 000 000 000 -99 -99 -99 -99 000 000 000 000 000 001 002 000 000 -99
000 000 000 000 000 000 000 000 000 000 -99 000 000 000 000 000 000 -99 -99 -99 000 000 000 000 000 000 001 003 001 000 000
000 000 000 000 000 000 000 000 000 000 000 000 000 000 000 000 -99 -99 -99 -99 000 000 000 000 000 000 001 003 001 001 000
000 000 000 000 000 000 000 000 000 000 000 000 000 000 000 000 000 -99 -99 -99 000 000 000 000 000 000 000 002 001 001 000
000 000 000 000 000 000 000 000 000 000 000 000 000 000 000 000 000 000 -99 -99 000 000 000 000 000 000 -99 002 002 001 -99
000 000 000 000 000 000 000 000 000 000 000 000 000 000 000 000 000 000 -99 -99 000 000 000 000 000 -99 -99 -99 -99 001 001
000 000 000 000 000 000 000 000 000 000 000 000 000 000 000 000 000 000 -99 -99 000 -99 -99 000 000 000 000 001 001 002 001
000 000 000 000 000 000 000 000 000 000 000 000 000 000 000 000 000 000 000 -99 000 000 -99 -99 000 000 000 001 001 002 003
000 000 000 000 000 000 000 000 000 000 000 000 000 000 000 000 000 000 000 000 000 000 -99 000 000 000 000 001 001 004 007
000 000 000 000 000 000 000 000 000 000 001 000 000 000 000 000 000 000 000 000 000 -99 -99 000 000 -99 001 001 002 005 014
000 000 000 000 000 000 000 000 000 000 001 000 000 000 000 000 000 000 000 000 000 000 -99 -99 000 000 001 003 006 014 039
000 000 000 000 000 000 000 000 000 001 000 000 000 000 000 000 000 000 000 000 000 000 -99 000 000 000 000 001 008 010 064
000 000 000 000 000 000 000 000 001 001 000 000 000 000 000 000 000 000 000 000 -99 000 -99 000 000 000 000 001 004 011 064
000 000 000 000 000 000 000 000 000 001 000 000 000 000 000 000 000 000 000 001 000 000 -99 000 000 000 000 000 002 006 019
000 000 000 000 000 000 000 000 001 001 000 000 000 000 000 000 000 -99 000 000 000 000 000 000 000 000 000 000 001 002 006
000 000 000 000 000 000 000 000 001 001 000 000 000 000 000 000 000 000 000 000 000 000 000 000 000 000 001 000 002 002 005
000 000 000 000 000 000 000 000 001 000 000 001 000 000 000 000 000 000 000 000 000 000 000 -99 001 001 003 004 005 008 016
000 000 000 000 000 000 000 000 000 001 001 001 000 000 000 000 000 000 000 000 000 000 001 -99 001 002 005 006 010 017 026
000 000 000 000 000 000 000 000 000 001 001 001 000 001 000 000 000 000 000 000 000 000 000 -99 002 003 004 010 019 019 026
000 000 000 000 000 000 000 000 000 001 001 001 001 001 001 000 000 000 000 000 000 000 000 -99 002 004 005 009 021 024 043
000 000 000 000 000 000 000 000 000 001 002 001 001 001 001 001 000 000 000 000 000 000 000 -99 003 003 007 009 014 025 060
000 000 000 000 000 000 000 000 000 001 001 001 001 002 001 001 000 000 000 000 000 000 000 -99 003 003 -99 011 009 021 052
000 000 000 000 000 000 000 000 000 001 002 001 001 005 004 002 000 000 000 000 000 001 001 -99 -99 003 -99 009 010 015 033
000 000 000 000 000 000 000 000 000 001 001 001 002 003 004 003 001 000 001 001 001 002 002 -99 -99 -99 -99 -99 006 007 011
000 000 000 000 000 000 000 000 000 001 002 001 005 006 005 005 003 001 001 001 002 002 002 -99 -99 -99 -99 -99 -99 004 005
000 000 000 000 000 000 000 000 000 001 001 001 004 004 004 004 003 001 003 002 003 002 003 005 005 -99 -99 -99 003 004 007
000 000 000 000 000 000 000 000 000 001 001 002 013 008 008 004 004 002 005 004 003 001 003 004 005 003 -99 -99 003 004 005
000 000 000 000 000 000 000 000 000 001 001 001 007 006 006 004 003 002 006 009 011 002 003 002 002 002 003 004 003 004 003
000 000 000 000 000 000 000 000 000 000 001 002 005 008 006 006 004 002 004 012 013 004 006 003 002 002 006 004 003 -99 000
001 001 001 000 000 000 000 000 000 000 001 002 006 005 003 002 006 002 005 018 012 010 014 008 005 005 010 006 002 -99 000
002 003 002 000 000 002 000 000 000 000 001 002 007 009 006 004 008 003 004 005 010 015 019 011 019 010 008 001 000 001 -99
005 003 002 001 001 003 000 000 000 001 002 005 009 012 011 008 011 010 005 006 007 016 033 014 050 011 009 003 001 001 000
005 003 001 002 003 004 001 000 000 001 002 004 006 015 015 012 008 007 004 004 011 033 046 030 020 022 017 008 002 000 000
004 004 001 002 003 008 002 001 000 001 006 004 009 016 010 009 006 006 007 011 012 031 035 045 052 058 056 028 016 005 001
004 005 004 003 005 006 003 001 002 004 003 005 010 013 006 009 006 011 007 012 021 043 032 043 075 055 085 038 039 016 007
003 006 004 005 005 001 001 001 004 008 004 006 004 006 007 009 009 013 021 017 025 047 044 078 039 022 030 013 039 006 004
002 003 002 004 003 000 000 003 008 009 004 002 003 005 007 012 006 011 031 008 017 047 025 028 015 003 017 005 011 001 002
000 000 000 000 000 000 000 004 009 011 006 003 004 007 009 009 005 010 015 002 005 011 006 006 001 000 000 003 006 002 001
000 000 000 000 000 000 000 002 017 009 005 002 004 008 007 009 005 024 005 002 003 001 000 001 000 000 000 006 004 001 001
000 -99 000 000 000 000 000 003 015 005 004 003 006 009 011 010 022 055 002 001 001 000 000 000 000 000 -99 -99 -99 000 001
-99 -99 000 000 000 000 000 000 002 003 005 003 014 013 015 014 028 012 001 000 000 000 000 -99 000 000 -99 -99 -99 -99 -99
-99 -99 -99 000 000 000 000 000 001 005 007 007 022 015 006 012 013 004 000 000 000 000 000 -99 000 000 -99 -99 -99 -99 000
-99 -99 -99 -99 -99 000 000 000 001 003 005 006 022 021 003 004 006 000 000 000 -99 000 000 -99 000 000 -99 -99 -99 -99 -99
-99 -99 -99 -99 -99 000 000 000 000 004 005 017 029 016 001 004 003 000 000 000 000 000 -99 -99 000 000 -99 -99 -99 -99 000
-99 -99 -99 -99 -99 000 000 000 002 004 007 018 028 005 000 002 001 000 000 -99 000 000 000 -99 000 000 -99 -99 -99 -99 -99
-99 -99 -99 -99 -99 -99 000 000 000 002 006 005 003 000 000 001 -99 000 -99 000 000 000 000 000 000 -99 -99 -99 -99 -99 -99
-99 -99 -99 -99 -99 -99 -99 000 000 000 000 001 000 000 000 -99 -99 -99 -99 000 000 000 000 000 000 -99 -99 -99 -99 -99 -99
-99 -99 -99 -99 -99 -99 -99 -99 000 000 000 000 -99 -99 -99 -99 -99 -99 -99 000 000 000 -99 000 000 -99 -99 000 -99 -99 -99
-99 -99 -99 -99 -99 -99 -99 -99 -99 -99 000 -99 -99 -99 -99 -99 -99 -99 000 000 000 000 -99 000 -99 -99 -99 -99 -99 -99 -99
-99 -99 -99 -99 -99 -99 -99 -99 -99 -99 -99 -99 -99 -99 -99 -99 -99 -99 -99 000 -99 -99 -99 -99 -99 -99 -99 -99 -99 -99 -99
-99 -99 -99 -99 -99 -99 -99 -99 -99 -99 -99 -99 -99 -99 -99 -99 -99 000 000 -99 -99 -99 -99 -99 -99 -99 -99 -99 -99 -99 -99
-99 -99 -99 -99 -99 -99 -99 -99 -99 -99 -99 -99 -99 -99 -99 -99 000 000 000 -99 -99 -99 -99 -99 -99 -99 -99 -99 -99 -99 -99
-99 -99 -99 -99 -99 -99 -99 -99 -99 -99 -99 -99 -99 -99 -99 000 000 000 -99 -99 -99 -99 -99 -99 -99 -99 -99 -99 -99 -99 -99
